300
50 50
1 40 573
2 40 251
3 40 862
4 40 859
5 40 903
6 39 412
7 39 354
8 39 386
9 39 446
10 39 872
11 39 625
12 39 973
13 38 76
14 38 58
15 38 27
16 38 204
17 38 546
18 37 51
19 37 140
20 37 988
21 37 561
22 37 213
23 37 631
24 37 363
25 37 808
26 37 761
27 37 622
28 37 565
29 37 337
30 37 538
31 37 35
32 37 7
33 36 457
34 36 202
35 36 71
36 36 370
37 36 960
38 36 129
39 36 103
40 36 955
41 36 624
42 35 658
43 35 790
44 35 95
45 35 153
46 35 943
47 35 345
48 35 871
49 35 282
50 35 182
51 35 39
52 35 89
53 34 41
54 34 849
55 34 352
56 34 307
57 34 435
58 34 502
59 34 165
60 34 156
61 34 531
62 34 984
63 33 577
64 33 593
65 33 97
66 33 676
67 33 872
68 33 902
69 33 276
70 33 240
71 33 293
72 33 398
73 32 193
74 32 468
75 32 854
76 32 953
77 32 401
78 32 239
79 32 644
80 31 935
81 31 303
82 31 145
83 31 495
84 31 573
85 31 903
86 31 345
87 31 996
88 30 519
89 30 827
90 30 527
91 30 345
92 30 724
93 30 921
94 30 375
95 30 516
96 30 907
97 29 942
98 29 292
99 29 889
100 29 740
101 29 311
102 29 454
103 28 602
104 28 411
105 28 495
106 28 251
107 28 780
108 28 624
109 28 317
110 28 780
111 28 127
112 28 30
113 27 579
114 27 669
115 27 269
116 27 648
117 27 704
118 27 615
119 26 901
120 26 552
121 26 980
122 26 795
123 26 359
124 26 547
125 26 557
126 26 930
127 26 73
128 25 593
129 25 375
130 25 361
131 25 290
132 25 804
133 25 426
134 25 300
135 24 25
136 24 143
137 24 480
138 24 394
139 24 501
140 24 544
141 24 3
142 24 738
143 24 738
144 24 607
145 23 309
146 23 910
147 23 327
148 23 479
149 23 360
150 23 98
151 23 236
152 22 890
153 22 990
154 22 540
155 22 647
156 22 695
157 22 809
158 22 405
159 22 950
160 21 255
161 21 760
162 21 649
163 21 391
164 21 448
165 21 557
166 21 683
167 21 619
168 21 733
169 21 367
170 21 310
171 20 234
172 20 478
173 20 58
174 20 37
175 20 420
176 20 978
177 20 484
178 20 91
179 20 106
180 20 649
181 20 791
182 20 557
183 19 49
184 19 770
185 19 686
186 19 846
187 19 227
188 19 971
189 19 998
190 19 439
191 19 806
192 19 67
193 19 232
194 19 489
195 19 949
196 19 517
197 18 932
198 18 692
199 17 691
200 17 485
201 17 497
202 17 546
203 17 887
204 17 283
205 17 990
206 16 597
207 16 954
208 16 396
209 16 246
210 16 504
211 16 699
212 16 325
213 16 875
214 16 208
215 16 555
216 15 623
217 15 793
218 15 266
219 15 454
220 15 50
221 15 662
222 14 679
223 14 874
224 14 295
225 14 294
226 14 959
227 14 786
228 14 527
229 14 36
230 13 429
231 13 341
232 13 882
233 13 741
234 12 680
235 12 524
236 12 242
237 12 758
238 12 482
239 12 341
240 12 28
241 12 737
242 11 553
243 11 744
244 11 978
245 11 193
246 11 482
247 11 26
248 11 534
249 11 602
250 11 866
251 10 747
252 10 993
253 10 746
254 10 937
255 10 648
256 10 161
257 10 320
258 10 669
259 10 754
260 10 404
261 9 871
262 9 72
263 9 435
264 9 584
265 9 525
266 9 604
267 9 209
268 9 519
269 9 189
270 8 719
271 8 306
272 8 944
273 8 561
274 8 330
275 8 95
276 8 666
277 8 623
278 8 757
279 8 278
280 7 782
281 7 574
282 7 982
283 7 36
284 7 838
285 6 57
286 6 287
287 6 476
288 6 968
289 6 638
290 6 805
291 6 194
292 6 92
293 6 113
294 5 796
295 5 44
296 5 766
297 5 782
298 5 787
299 5 603
300 5 281
